n_boats=80;
n_periods=20;
capacity=[12,7,9,7,8,1,5,4,2,3,4,11,9,9,9,3,8,4,2,9,12,6,3,2,7,9,1,11,4,12,5,12,3,5,11,7,2,7,12,1,9,4,7,2,11,3,11,2,6,1,3,7,9,9,9,11,10,6,9,8,10,9,6,7,12,9,5,2,6,12,5,4,12,7,12,11,1,5,4,5];
crew=[8,3,2,2,3,1,1,2,2,3,2,2,8,2,4,3,1,2,1,7,1,1,1,1,5,8,1,9,1,4,2,11,1,5,2,5,2,6,7,1,3,4,7,1,1,2,10,2,1,1,2,2,8,5,2,7,8,6,3,3,10,7,6,4,8,5,4,1,5,1,3,3,7,3,9,1,1,4,1,4];
